396 401 402 
425 430 431 
455 460 461 
485 490 491 
515 520 521 
550 556 557 
583 589 590 
613 619 620 
643 649 650 
673 679 680 
703 709 710 
733 739 740 
763 769 770 
793 799 800 
824 830 831 
854 860 861 
884 890 891 
914 920 921 
944 950 951 
974 980 981 
1004 1010 1011 
1034 1040 1041 
1064 1070 1071 
1094 1100 1101 
1126 1132 1133 
1152 1157 1158 
1179 1184 1185 
1209 1214 1215 
1239 1244 1245 
1269 1274 1275 
1299 1304 1305 
1329 1334 1335 
1359 1364 1365 
1389 1394 1395 
1419 1424 1425 
1449 1454 1455 
1479 1484 1485 
